27 3
4 6 5
0 0 0 0 25 2 3 4 5 6 7 8 9 10 11 12 13 14 15 16 17 18 19 20 21 22 23 24 25 26
2 2 3 0 4 27 21 24 9
5 2 3 2 2 27 15
4 1 0 1 5 27 15 16 20 19
5 2 1 0 4 27 23 26 22
2 2 1 1 7 27 22 16 10 9 8 8
3 2 3 1 5 27 18 14 22 24
1 2 3 0 4 27 21 20 19
3 1 2 1 3 27 13 14
2 2 2 0 3 27 24 23
2 1 2 0 3 27 15 17
2 1 0 2 3 27 20 19
2 0 0 2 3 27 16 14
5 0 0 1 4 27 18 26 16
3 0 0 2 1 27
2 1 0 2 3 27 22 22
4 0 0 2 2 27 21
3 1 0 2 2 27 23
5 2 1 0 1 27
5 1 0 1 3 27 24 25
1 1 3 1 1 27
3 0 2 2 2 27 26
2 2 2 2 1 27
3 0 0 0 2 27 25
3 0 3 1 1 27
3 2 1 2 1 27
0 0 0 0 0
